p cnf 81 482
-9 -10 0
-9 -11 0
-10 -11 0
9 10 11 0
2 -9 0
3 -10 0
4 -11 0
6 -9 0
7 -10 0
8 -11 0
-12 -13 0
-12 -14 0
-12 -15 0
-12 -16 0
-12 -17 0
-12 -18 0
-12 -19 0
-12 -20 0
-12 -21 0
-13 -14 0
-13 -15 0
-13 -16 0
-13 -17 0
-13 -18 0
-13 -19 0
-13 -20 0
-13 -21 0
-14 -15 0
-14 -16 0
-14 -17 0
-14 -18 0
-14 -19 0
-14 -20 0
-14 -21 0
-15 -16 0
-15 -17 0
-15 -18 0
-15 -19 0
-15 -20 0
-15 -21 0
-16 -17 0
-16 -18 0
-16 -19 0
-16 -20 0
-16 -21 0
-17 -18 0
-17 -19 0
-17 -20 0
-17 -21 0
-18 -19 0
-18 -20 0
-18 -21 0
-19 -20 0
-19 -21 0
-20 -21 0
12 13 14 15 16 17 18 19 20 21 0
-22 -23 0
-22 -24 0
-22 -25 0
-22 -26 0
-22 -27 0
-22 -28 0
-22 -29 0
-22 -30 0
-22 -31 0
-23 -24 0
-23 -25 0
-23 -26 0
-23 -27 0
-23 -28 0
-23 -29 0
-23 -30 0
-23 -31 0
-24 -25 0
-24 -26 0
-24 -27 0
-24 -28 0
-24 -29 0
-24 -30 0
-24 -31 0
-25 -26 0
-25 -27 0
-25 -28 0
-25 -29 0
-25 -30 0
-25 -31 0
-26 -27 0
-26 -28 0
-26 -29 0
-26 -30 0
-26 -31 0
-27 -28 0
-27 -29 0
-27 -30 0
-27 -31 0
-28 -29 0
-28 -30 0
-28 -31 0
-29 -30 0
-29 -31 0
-30 -31 0
22 23 24 25 26 27 28 29 30 31 0
-32 -33 0
-32 -34 0
-32 -35 0
-32 -36 0
-32 -37 0
-32 -38 0
-32 -39 0
-32 -40 0
-32 -41 0
-33 -34 0
-33 -35 0
-33 -36 0
-33 -37 0
-33 -38 0
-33 -39 0
-33 -40 0
-33 -41 0
-34 -35 0
-34 -36 0
-34 -37 0
-34 -38 0
-34 -39 0
-34 -40 0
-34 -41 0
-35 -36 0
-35 -37 0
-35 -38 0
-35 -39 0
-35 -40 0
-35 -41 0
-36 -37 0
-36 -38 0
-36 -39 0
-36 -40 0
-36 -41 0
-37 -38 0
-37 -39 0
-37 -40 0
-37 -41 0
-38 -39 0
-38 -40 0
-38 -41 0
-39 -40 0
-39 -41 0
-40 -41 0
32 33 34 35 36 37 38 39 40 41 0
-42 -43 0
-42 -44 0
-42 -45 0
-42 -46 0
-42 -47 0
-42 -48 0
-42 -49 0
-42 -50 0
-42 -51 0
-43 -44 0
-43 -45 0
-43 -46 0
-43 -47 0
-43 -48 0
-43 -49 0
-43 -50 0
-43 -51 0
-44 -45 0
-44 -46 0
-44 -47 0
-44 -48 0
-44 -49 0
-44 -50 0
-44 -51 0
-45 -46 0
-45 -47 0
-45 -48 0
-45 -49 0
-45 -50 0
-45 -51 0
-46 -47 0
-46 -48 0
-46 -49 0
-46 -50 0
-46 -51 0
-47 -48 0
-47 -49 0
-47 -50 0
-47 -51 0
-48 -49 0
-48 -50 0
-48 -51 0
-49 -50 0
-49 -51 0
-50 -51 0
42 43 44 45 46 47 48 49 50 51 0
-52 -53 0
-52 -54 0
-52 -55 0
-52 -56 0
-52 -57 0
-52 -58 0
-52 -59 0
-52 -60 0
-52 -61 0
-53 -54 0
-53 -55 0
-53 -56 0
-53 -57 0
-53 -58 0
-53 -59 0
-53 -60 0
-53 -61 0
-54 -55 0
-54 -56 0
-54 -57 0
-54 -58 0
-54 -59 0
-54 -60 0
-54 -61 0
-55 -56 0
-55 -57 0
-55 -58 0
-55 -59 0
-55 -60 0
-55 -61 0
-56 -57 0
-56 -58 0
-56 -59 0
-56 -60 0
-56 -61 0
-57 -58 0
-57 -59 0
-57 -60 0
-57 -61 0
-58 -59 0
-58 -60 0
-58 -61 0
-59 -60 0
-59 -61 0
-60 -61 0
52 53 54 55 56 57 58 59 60 61 0
-62 -63 0
-62 -64 0
-62 -65 0
-62 -66 0
-62 -67 0
-62 -68 0
-62 -69 0
-62 -70 0
-62 -71 0
-63 -64 0
-63 -65 0
-63 -66 0
-63 -67 0
-63 -68 0
-63 -69 0
-63 -70 0
-63 -71 0
-64 -65 0
-64 -66 0
-64 -67 0
-64 -68 0
-64 -69 0
-64 -70 0
-64 -71 0
-65 -66 0
-65 -67 0
-65 -68 0
-65 -69 0
-65 -70 0
-65 -71 0
-66 -67 0
-66 -68 0
-66 -69 0
-66 -70 0
-66 -71 0
-67 -68 0
-67 -69 0
-67 -70 0
-67 -71 0
-68 -69 0
-68 -70 0
-68 -71 0
-69 -70 0
-69 -71 0
-70 -71 0
62 63 64 65 66 67 68 69 70 71 0
-72 -73 0
-72 -74 0
-72 -75 0
-72 -76 0
-72 -77 0
-72 -78 0
-72 -79 0
-72 -80 0
-72 -81 0
-73 -74 0
-73 -75 0
-73 -76 0
-73 -77 0
-73 -78 0
-73 -79 0
-73 -80 0
-73 -81 0
-74 -75 0
-74 -76 0
-74 -77 0
-74 -78 0
-74 -79 0
-74 -80 0
-74 -81 0
-75 -76 0
-75 -77 0
-75 -78 0
-75 -79 0
-75 -80 0
-75 -81 0
-76 -77 0
-76 -78 0
-76 -79 0
-76 -80 0
-76 -81 0
-77 -78 0
-77 -79 0
-77 -80 0
-77 -81 0
-78 -79 0
-78 -80 0
-78 -81 0
-79 -80 0
-79 -81 0
-80 -81 0
72 73 74 75 76 77 78 79 80 81 0
-12 -22 0
-13 -23 0
-14 -24 0
-15 -25 0
-16 -26 0
-17 -27 0
-18 -28 0
-19 -29 0
-20 -30 0
-21 -31 0
-1 -12 -32 0
-1 -13 -33 0
-1 -14 -34 0
-1 -15 -35 0
-1 -16 -36 0
-1 -17 -37 0
-1 -18 -38 0
-1 -19 -39 0
-1 -20 -40 0
-1 -21 -41 0
-2 -12 -42 0
-2 -13 -43 0
-2 -14 -44 0
-2 -15 -45 0
-2 -16 -46 0
-2 -17 -47 0
-2 -18 -48 0
-2 -19 -49 0
-2 -20 -50 0
-2 -21 -51 0
-12 -52 0
-13 -53 0
-14 -54 0
-15 -55 0
-16 -56 0
-17 -57 0
-18 -58 0
-19 -59 0
-20 -60 0
-21 -61 0
-3 -12 -62 0
-3 -13 -63 0
-3 -14 -64 0
-3 -15 -65 0
-3 -16 -66 0
-3 -17 -67 0
-3 -18 -68 0
-3 -19 -69 0
-3 -20 -70 0
-3 -21 -71 0
-4 -12 -72 0
-4 -13 -73 0
-4 -14 -74 0
-4 -15 -75 0
-4 -16 -76 0
-4 -17 -77 0
-4 -18 -78 0
-4 -19 -79 0
-4 -20 -80 0
-4 -21 -81 0
-22 -32 0
-23 -33 0
-24 -34 0
-25 -35 0
-26 -36 0
-27 -37 0
-28 -38 0
-29 -39 0
-30 -40 0
-31 -41 0
-22 -42 0
-23 -43 0
-24 -44 0
-25 -45 0
-26 -46 0
-27 -47 0
-28 -48 0
-29 -49 0
-30 -50 0
-31 -51 0
-22 -52 0
-23 -53 0
-24 -54 0
-25 -55 0
-26 -56 0
-27 -57 0
-28 -58 0
-29 -59 0
-30 -60 0
-31 -61 0
-22 -72 0
-23 -73 0
-24 -74 0
-25 -75 0
-26 -76 0
-27 -77 0
-28 -78 0
-29 -79 0
-30 -80 0
-31 -81 0
-5 -32 -52 0
-5 -33 -53 0
-5 -34 -54 0
-5 -35 -55 0
-5 -36 -56 0
-5 -37 -57 0
-5 -38 -58 0
-5 -39 -59 0
-5 -40 -60 0
-5 -41 -61 0
-32 -72 0
-33 -73 0
-34 -74 0
-35 -75 0
-36 -76 0
-37 -77 0
-38 -78 0
-39 -79 0
-40 -80 0
-41 -81 0
-6 -42 -52 0
-6 -43 -53 0
-6 -44 -54 0
-6 -45 -55 0
-6 -46 -56 0
-6 -47 -57 0
-6 -48 -58 0
-6 -49 -59 0
-6 -50 -60 0
-6 -51 -61 0
-7 -52 -62 0
-7 -53 -63 0
-7 -54 -64 0
-7 -55 -65 0
-7 -56 -66 0
-7 -57 -67 0
-7 -58 -68 0
-7 -59 -69 0
-7 -60 -70 0
-7 -61 -71 0
-8 -52 -72 0
-8 -53 -73 0
-8 -54 -74 0
-8 -55 -75 0
-8 -56 -76 0
-8 -57 -77 0
-8 -58 -78 0
-8 -59 -79 0
-8 -60 -80 0
-8 -61 -81 0
